p cnf 101 13
-20 33 3 59 -4 -55 72 0
-5 -43 -45 -11 -2 -31 -30 0
-24 2 -19 -9 45 -20 59 0
58 -14 -57 -1 85 -3 31 0
21 -4 -50 -40 74 76 -63 0
-11 36 2 -22 -79 -7 -32 0
-67 -37 -29 -25 39 8 65 0
22 69 -18 -3 1 -2 -84 0
45 -20 13 -5 23 9 21 0
24 -96 1 26 -33 73 10 0
9 -12 4 -11 77 34 -39 0
84 31 96 56 35 -11 -2 0
-48 -1 -15 -11 36 4 7 0
